p wcnf 157 314 315 
1 -157 -12 0 
1 20 -132 0 
1 32 88 0 
1 -42 -65 0 
1 -93 -10 0 
1 -39 -53 0 
1 11 -33 0 
1 -71 153 0 
1 -10 -136 0 
1 -18 -91 0 
1 15 18 0 
1 81 15 0 
1 37 -90 0 
1 -148 -83 0 
1 -117 43 0 
1 -147 -117 0 
1 21 -137 0 
1 -23 -12 0 
1 -145 98 0 
1 -79 95 0 
1 3 -62 0 
1 -20 38 0 
1 -130 57 0 
1 -8 -126 0 
1 117 -128 0 
1 136 -18 0 
1 -85 -4 0 
1 127 32 0 
1 -157 -38 0 
1 -44 -8 0 
1 67 -24 0 
1 -23 -88 0 
1 -2 11 0 
1 -18 -109 0 
1 91 53 0 
1 122 54 0 
1 94 15 0 
1 104 -12 0 
1 -65 -25 0 
1 93 68 0 
1 -2 141 0 
1 135 34 0 
1 -20 28 0 
1 101 -30 0 
1 -129 -61 0 
1 -130 -137 0 
1 -52 -156 0 
1 27 -97 0 
1 38 114 0 
1 -19 -16 0 
1 -119 141 0 
1 -114 -80 0 
1 -64 -85 0 
1 -20 -51 0 
1 -127 -101 0 
1 132 -106 0 
1 -126 155 0 
1 -75 -39 0 
1 11 106 0 
1 -108 -8 0 
1 -54 141 0 
1 -96 117 0 
1 -104 67 0 
1 -122 94 0 
1 111 -21 0 
1 -55 111 0 
1 147 121 0 
1 49 83 0 
1 106 -10 0 
1 34 27 0 
1 -78 38 0 
1 93 -45 0 
1 -76 75 0 
1 140 -116 0 
1 54 -114 0 
1 35 5 0 
1 -30 -1 0 
1 -86 57 0 
1 18 65 0 
1 137 -132 0 
1 -73 104 0 
1 -39 -75 0 
1 -109 96 0 
1 93 133 0 
1 -107 125 0 
1 -135 -62 0 
1 -99 46 0 
1 -115 -87 0 
1 -25 -116 0 
1 70 118 0 
1 101 56 0 
1 -143 -134 0 
1 56 -81 0 
1 102 -97 0 
1 131 64 0 
1 -21 94 0 
1 -152 -71 0 
1 19 65 0 
1 -155 -90 0 
1 -27 -121 0 
1 -116 96 0 
1 62 42 0 
1 122 127 0 
1 106 -76 0 
1 -133 -91 0 
1 -105 144 0 
1 -64 -128 0 
1 -47 -90 0 
1 92 -41 0 
1 -126 138 0 
1 64 60 0 
1 -73 75 0 
1 146 -82 0 
1 -109 141 0 
1 -10 -15 0 
1 67 116 0 
1 16 131 0 
1 -74 9 0 
1 103 -53 0 
1 109 -86 0 
1 11 -128 0 
1 -139 -42 0 
1 -63 74 0 
1 151 129 0 
1 76 153 0 
1 -105 -123 0 
1 -35 2 0 
1 -130 -45 0 
1 136 7 0 
1 40 -123 0 
1 116 -6 0 
1 121 74 0 
1 14 56 0 
1 77 -111 0 
1 19 -137 0 
1 -157 -46 0 
1 -156 -86 0 
1 23 -150 0 
1 -18 -86 0 
1 144 130 0 
1 5 156 0 
1 127 -90 0 
1 148 87 0 
1 25 -57 0 
1 -17 -103 0 
1 144 61 0 
1 6 -127 0 
1 -45 114 0 
1 100 126 0 
1 -127 11 0 
1 -4 -119 0 
1 -69 -42 0 
1 -38 -132 0 
1 -126 -63 0 
1 96 -68 0 
1 -97 25 0 
1 133 -116 0 
1 -124 -19 0 
1 -47 -152 0 
1 80 134 0 
1 119 -78 0 
1 19 39 0 
1 67 -87 0 
1 -110 -55 0 
1 -4 -146 0 
1 157 -111 0 
1 -122 7 0 
1 -109 126 0 
1 -93 -110 0 
1 -149 -64 0 
1 -60 21 0 
1 54 -136 0 
1 -68 87 0 
1 84 -38 0 
1 -100 86 0 
1 -70 102 0 
1 -14 -96 0 
1 -26 38 0 
1 -76 -116 0 
1 -92 -155 0 
1 -56 46 0 
1 81 32 0 
1 72 -7 0 
1 87 27 0 
1 -136 29 0 
1 79 -131 0 
1 -115 75 0 
1 157 112 0 
1 98 -55 0 
1 -106 155 0 
1 140 -118 0 
1 -27 -107 0 
1 12 -102 0 
1 4 -73 0 
1 -98 -69 0 
1 10 -130 0 
1 -5 119 0 
1 83 -1 0 
1 13 -84 0 
1 -136 79 0 
1 53 -57 0 
1 -57 39 0 
1 152 119 0 
1 -92 -101 0 
1 141 24 0 
1 -61 37 0 
1 96 -13 0 
1 47 -20 0 
1 -71 -15 0 
1 103 -34 0 
1 65 70 0 
1 -38 39 0 
1 64 96 0 
1 33 -19 0 
1 -157 -42 0 
1 -77 41 0 
1 1 -41 0 
1 -39 20 0 
1 29 -155 0 
1 -97 -57 0 
1 -124 -12 0 
1 -68 145 0 
1 91 -104 0 
1 14 89 0 
1 -117 137 0 
1 -53 -155 0 
1 122 65 0 
1 -15 108 0 
1 -43 -10 0 
1 9 -65 0 
1 -115 110 0 
1 -121 -116 0 
1 61 -4 0 
1 -47 -132 0 
1 -123 -85 0 
1 123 -35 0 
1 -146 18 0 
1 -38 157 0 
1 -6 -136 0 
1 -105 77 0 
1 141 135 0 
1 -80 121 0 
1 -50 -106 0 
1 140 -49 0 
1 83 50 0 
1 142 155 0 
1 -135 75 0 
1 -6 1 0 
1 28 -150 0 
1 140 132 0 
1 85 19 0 
1 42 -91 0 
1 -122 -40 0 
1 -86 -76 0 
1 -97 143 0 
1 -110 38 0 
1 106 140 0 
1 -24 -50 0 
1 103 150 0 
1 -122 -151 0 
1 -136 87 0 
1 -91 55 0 
1 60 105 0 
1 -155 47 0 
1 57 132 0 
1 53 -117 0 
1 -37 81 0 
1 48 -132 0 
1 5 126 0 
1 -36 30 0 
1 -30 -38 0 
1 107 119 0 
1 102 83 0 
1 -36 48 0 
1 -130 131 0 
1 -116 52 0 
1 156 -34 0 
1 86 -76 0 
1 141 -139 0 
1 110 -8 0 
1 148 147 0 
1 -34 56 0 
1 87 154 0 
1 -105 -127 0 
1 100 -118 0 
1 60 141 0 
1 151 103 0 
1 -115 144 0 
1 -39 -52 0 
1 -149 -141 0 
1 -140 61 0 
1 -54 -83 0 
1 31 -125 0 
1 -155 4 0 
1 1 -88 0 
1 111 57 0 
1 -101 -126 0 
1 -78 62 0 
1 -131 -45 0 
1 -15 -2 0 
1 21 -108 0 
1 86 60 0 
1 -19 144 0 
1 19 102 0 
1 151 -95 0 
1 -47 100 0 
1 13 99 0 
1 -122 66 0 
1 -94 -65 0 
1 46 -111 0 
1 129 69 0 
1 45 114 0 
1 77 118 0 
1 118 -155 0 
